SCIP version 5.0.0 [precision: 8 byte] [memory: block] [mode: optimized] [LP solver: NONE] [GitHash: 3bbd232]
Copyright (C) 2002-2017 Konrad-Zuse-Zentrum fuer Informationstechnik Berlin (ZIB)

External codes: 
  Readline EditLine w  GNU library for command line editing (gnu.org/s/readline)
  CppAD 20160000.1     Algorithmic Differentiation of C++ algorithms developed by B. Bell (www.coin-or.org/CppAD)
  ZLIB 1.2.5           General purpose compression library by J. Gailly and M. Adler (zlib.net)
  GMP 6.1.2            GNU Multiple Precision Arithmetic Library developed by T. Granlund (gmplib.org)

user parameter file <scip.set> not found - using default parameters

read problem <../../Split_data/output/breast/1/4_sample_breast.logreg>
============

File name	:	../../Split_data/output/breast/1/4_sample_breast.logreg
Problem name 	:	4_sample_breast
Number of data	:	155
Number of var	:	33
The given data has linear independence

[dim=1] time: 0.003846
[dim=2] time: 0.007983
[dim=3] time: 0.012126
[dim=4] time: 0.01617
[dim=5] time: 0.020078
[dim=6] time: 0.024052
[dim=7] time: 0.027685
[dim=8] Time of forward = 0.031672sec.
AIC: 140.808
k: 7

[dim=33] time: 0.013243
[dim=32] time: 0.025092
[dim=31] time: 0.034288
[dim=30] time: 0.045691
[dim=29] time: 0.056468
[dim=28] time: 0.066693
[dim=27] time: 0.077353
[dim=26] time: 0.085158
[dim=25] time: 0.092577
[dim=24] time: 0.098267
[dim=23] time: 0.104737
[dim=22] time: 0.110946
[dim=21] time: 0.118236
[dim=20] Time of backward = 0.131021sec.
AIC: 125.573
k: 21
